
<<< setup


<<< generate

Version identifier: 22.1.1.0 | 2022-11-28 | 9160aff4d
CPXPARAM_TimeLimit                               1800
Found incumbent of value 0.000000 after 0.00 sec. (0.01 ticks)
Tried aggregator 3 times.
MIP Presolve eliminated 12 rows and 30 columns.
MIP Presolve modified 105 coefficients.
Aggregator did 165 substitutions.
Reduced MIP has 256 rows, 243 columns, and 651 nonzeros.
Reduced MIP has 156 binaries, 12 generals, 0 SOSs, and 0 indicators.
Presolve time = 0.00 sec. (0.80 ticks)
Probing fixed 0 vars, tightened 30 bounds.
Probing time = 0.00 sec. (0.48 ticks)
Tried aggregator 2 times.
Detecting symmetries...
Aggregator did 15 substitutions.
Reduced MIP has 241 rows, 228 columns, and 636 nonzeros.
Reduced MIP has 156 binaries, 72 generals, 0 SOSs, and 0 indicators.
Presolve time = 0.00 sec. (0.75 ticks)
Probing time = 0.00 sec. (0.40 ticks)
Clique table members: 596.
MIP emphasis: balance optimality and feasibility.
MIP search method: dynamic search.
Parallel mode: deterministic, using up to 8 threads.
Root relaxation solution time = 0.00 sec. (0.33 ticks)

        Nodes                                         Cuts/
   Node  Left     Objective  IInf  Best Integer    Best Bound    ItCnt     Gap

*     0+    0                            0.0000       12.0000              --- 
*     0+    0                            4.0000       12.0000           200.00%
      0     0       10.0000    52        4.0000       10.0000       56  150.00%
      0     0       10.0000     8        4.0000       Cuts: 4       64  150.00%
*     0+    0                            9.0000       10.0000            11.11%
      0     0       10.0000    21        9.0000      Cuts: 39       89   11.11%
      0     0       10.0000    13        9.0000      Cuts: 20      116   11.11%
      0     0       10.0000    20        9.0000      Cuts: 37      127   11.11%
*     0+    0                           10.0000       10.0000             0.00%
      0     0        cutoff             10.0000       10.0000      127    0.00%
Elapsed time = 0.02 sec. (13.71 ticks, tree = 0.01 MB, solutions = 4)

Clique cuts applied:  20
Cover cuts applied:  1
Implied bound cuts applied:  32
Zero-half cuts applied:  5
Gomory fractional cuts applied:  3

Root node processing (before b&c):
  Real time             =    0.02 sec. (13.73 ticks)
Parallel b&c, 8 threads:
  Real time             =    0.00 sec. (0.00 ticks)
  Sync time (average)   =    0.00 sec.
  Wait time (average)   =    0.00 sec.
                          ------------
Total (root+branch&cut) =    0.02 sec. (13.73 ticks)

<<< solve


OBJECTIVE: 10

<<< post process


<<< done

